numOfMachines = 4;
numOfRobots = 2;
numOfJobs = 6;
maxOperations = 4;
operationsCount = [2,2,2,2,4,4];

operation = [
[<0,0,0>,<1,32,0>,<3,30,1>],
[<0,0,0>,<2,36,0>,<4,30,0>],
[<0,0,0>,<1,40,0>,<2,20,0>],
[<0,0,0>,<3,30,0>,<4,20,1>],
[<0,0,0>,<1,16,0>,<2,20,0>,<3,30,1>,<4,34,0>],
[<0,0,0>,<2,20,0>,<3,30,0>,<4,16,0>,<1,30,0>]
];